s td 153 10 162
b 1 17 18
b 2 145 146
b 3 1 2 20
b 4 2 3 20
b 5 3 4 5
b 6 5 6 7
b 7 7 8 9
b 8 9 10 11
b 9 11 12 13
b 10 13 14 15
b 11 15 16 17
b 12 15 17 36
b 13 19 20 38
b 14 15 35 36
b 15 37 38 56
b 16 35 53 54
b 17 55 56 74
b 18 53 71 72
b 19 73 74 92
b 20 71 89 90
b 21 91 92 110
b 22 89 107 108
b 23 109 110 128
b 24 107 125 126
b 25 127 128 146
b 26 125 143 144
b 27 128 146 147
b 28 128 147 148
b 29 148 149 150
b 30 150 151 152
b 31 152 153 154
b 32 154 155 156
b 33 156 157 158
b 34 158 159 160
b 35 160 161 162
b 36 143 160 162
b 37 13 15 34 35
b 38 3 5 23 43 63 80 100 120 140 158
b 39 5 23 43 63 80 83 100 120 140 158
b 40 5 23 43 63 83 100 103 120 140 158
b 41 5 23 43 63 83 103 120 123 140 158
b 42 5 23 43 63 83 103 123 140 143 158
b 43 5 23 43 63 83 103 123 125 143
b 44 5 23 43 63 83 103 105 123 125
b 45 5 23 43 63 83 85 103 105 125
b 46 5 23 43 63 65 83 85 105 125
b 47 5 23 43 45 63 65 85 105 125
b 48 5 23 26 43 45 65 85 105 125
b 49 5 26 45 65 85 105 107 125
b 50 5 26 45 65 85 87 105 107
b 51 5 26 45 65 67 85 87 107
b 52 5 26 45 47 65 67 87 107
b 53 5 26 28 45 47 67 87 107
b 54 5 7 26 28 47 67 87 107
b 55 7 28 47 67 87 89 107
b 56 7 28 47 67 69 87 89
b 57 7 28 47 49 67 69 89
b 58 7 28 30 47 49 69 89
b 59 7 9 28 30 49 69 89
b 60 9 30 49 69 71 89
b 61 9 30 49 51 69 71
b 62 9 30 32 49 51 71
b 63 9 13 30 32 51 71
b 64 9 11 13 30
b 65 13 32 51 53 71
b 66 13 32 33 51 53
b 67 13 33 35 53
b 68 13 33 34 35
b 69 33 51 52 53
b 70 30 32 49 50 51
b 71 30 31 32 50
b 72 51 69 70 71
b 73 28 30 47 48 49
b 74 28 29 30 48
b 75 49 67 68 69
b 76 69 87 88 89
b 77 26 28 45 46 47
b 78 26 27 28 46
b 79 47 65 66 67
b 80 67 85 86 87
b 81 87 105 106 107
b 82 5 23 26 43 44 45
b 83 5 23 24 26 44
b 84 24 25 26 44
b 85 45 63 64 65
b 86 65 83 84 85
b 87 85 103 104 105
b 88 105 123 124 125
b 89 123 140 141 143 158
b 90 123 141 142 143
b 91 141 143 158 160
b 92 103 120 122 123 140
b 93 120 121 122 140
b 94 83 100 101 103 120
b 95 83 101 102 103
b 96 63 80 81 83 100
b 97 63 81 82 83
b 98 3 23 43 60 63 80 100 120 140 158
b 99 3 23 40 43 60 80 100 120 140 158
b 100 3 23 38 40 60 80 100 120 140 158
b 101 3 21 23 38 40
b 102 3 20 21 38
b 103 3 21 22 23
b 104 38 40 58 60 80 100 120 140 158
b 105 38 39 40 58
b 106 38 58 60 80 100 120 138 140 158
b 107 38 58 60 80 100 118 120 138 158
b 108 38 58 60 80 98 100 118 138 158
b 109 38 58 60 77 80 98 118 138 158
b 110 38 56 58 77 98 118 138 158
b 111 56 58 76 77 98 118 138 158
b 112 56 57 58 76
b 113 56 76 77 96 98 118 138 158
b 114 56 76 96 98 116 118 138 158
b 115 56 76 96 116 118 136 138 158
b 116 56 76 96 116 136 138 154 158
b 117 56 74 76 96 116 136 154
b 118 74 76 94 96 116 136 154
b 119 74 75 76 94
b 120 74 94 96 116 134 136 154
b 121 74 94 96 113 116 134 154
b 122 74 92 94 113 134 154
b 123 92 94 112 113 134 154
b 124 92 93 94 112
b 125 92 112 113 134 152 154
b 126 92 112 113 131 134 152
b 127 92 110 112 131 152
b 128 110 112 130 131 152
b 129 110 111 112 130
b 130 110 130 131 150 152
b 131 110 130 148 150
b 132 110 129 130 148
b 133 113 131 133 134 152
b 134 113 131 132 133
b 135 94 96 113 115 116 134
b 136 94 96 113 114 115
b 137 94 95 96 114
b 138 134 135 136 154
b 139 136 138 154 156 158
b 140 136 137 138 156
b 141 116 117 118 136
b 142 96 97 98 116
b 143 58 60 77 79 80 98
b 144 58 60 77 78 79
b 145 58 59 60 78
b 146 98 99 100 118
b 147 118 119 120 138
b 148 138 139 140 158
b 149 23 40 42 43 60
b 150 40 41 42 60
b 151 43 60 62 63 80
b 152 60 61 62 80
b 153 110 128 129 148
1 12
2 27
3 4
4 102
5 38
6 54
7 59
8 64
9 64
10 37
11 12
12 14
13 102
14 37
15 110
16 67
17 117
18 65
19 122
20 60
21 127
22 55
23 153
24 49
25 27
26 43
27 28
28 153
29 131
30 130
31 125
32 139
33 139
34 91
35 36
36 91
37 68
38 39
38 98
39 40
39 96
40 41
40 94
41 42
41 92
42 43
42 89
43 44
44 45
44 88
45 46
45 87
46 47
46 86
47 48
47 85
48 49
48 82
49 50
50 51
50 81
51 52
51 80
52 53
52 79
53 54
53 77
54 55
55 56
56 57
56 76
57 58
57 75
58 59
58 73
59 60
60 61
61 62
61 72
62 63
62 70
63 64
63 65
65 66
66 67
66 69
67 68
70 71
73 74
77 78
82 83
83 84
89 90
89 91
92 93
94 95
96 97
98 99
98 151
99 100
99 149
100 101
100 104
101 102
101 103
104 105
104 106
106 107
106 148
107 108
107 147
108 109
108 146
109 110
109 143
110 111
111 112
111 113
113 114
114 115
114 142
115 116
115 141
116 117
116 139
117 118
118 119
118 120
120 121
120 138
121 122
121 135
122 123
123 124
123 125
125 126
126 127
126 133
127 128
128 129
128 130
130 131
131 132
132 153
133 134
135 136
136 137
139 140
143 144
144 145
149 150
151 152
